
******************************************************************************
This program contains Ipopt, a library for large-scale nonlinear optimization.
 Ipopt is released as open source code under the Eclipse Public License (EPL).
         For more information visit http://projects.coin-or.org/Ipopt
******************************************************************************

This is Ipopt version 3.12.6, running with linear solver ma57.

Number of nonzeros in equality constraint Jacobian...:        0
Number of nonzeros in inequality constraint Jacobian.:        0
Number of nonzeros in Lagrangian Hessian.............:   309535

Total number of variables............................:    10000
                     variables with only lower bounds:        0
                variables with lower and upper bounds:        0
                     variables with only upper bounds:        0
Total number of equality constraints.................:        0
Total number of inequality constraints...............:        0
        inequality constraints with only lower bounds:        0
   inequality constraints with lower and upper bounds:        0
        inequality constraints with only upper bounds:        0

iter    objective    inf_pr   inf_du lg(mu)  ||d||  lg(rg) alpha_du alpha_pr  ls
   0  0.0000000e+00 0.00e+00 1.00e+02  -1.0 0.00e+00    -  0.00e+00 0.00e+00   0
   1 -2.4814412e-02 0.00e+00 1.19e+02  -1.0 1.19e-10  12.0 1.00e+00 1.00e+00f  1
   2 -1.8531337e-01 0.00e+00 2.59e+02  -1.0 7.76e-10  11.5 1.00e+00 1.00e+00f  1
   3 -2.8104159e-01 0.00e+00 3.24e+02  -1.0 3.65e-10  11.9 1.00e+00 1.00e+00f  1
   4 -1.2193412e+00 0.00e+00 8.03e+02  -1.0 2.71e-09  11.5 1.00e+00 1.00e+00f  1
   5 -1.8819092e+00 0.00e+00 1.03e+03  -1.0 1.31e-09  11.9 1.00e+00 1.00e+00f  1
   6 -1.2331209e+01 0.00e+00 3.08e+03  -1.0 1.17e-08  11.4 1.00e+00 1.00e+00f  1
   7 -2.0931102e+01 0.00e+00 4.09e+03  -1.0 5.83e-09  11.8 1.00e+00 1.00e+00f  1
   8 -2.5614271e+02 0.00e+00 1.54e+04  -1.0 6.69e-08  11.4 1.00e+00 1.00e+00f  1
   9 -4.7238716e+02 0.00e+00 2.09e+04  -1.0 3.36e-08  11.8 1.00e+00 1.00e+00f  1
iter    objective    inf_pr   inf_du lg(mu)  ||d||  lg(rg) alpha_du alpha_pr  ls
  10 -6.9335502e+03 0.00e+00 4.35e+04  -1.0 4.19e-07  11.3 1.00e+00 1.00e+00f  1
  11 -8.7123239e+03 0.00e+00 4.28e+04  -1.0 8.12e-08  11.7 1.00e+00 1.00e+00f  1
  12 -1.5698939e+04 0.00e+00 3.97e+04  -1.0 3.61e-07  11.3 1.00e+00 1.00e+00f  1
  13 -1.7174695e+04 0.00e+00 3.91e+04  -1.0 8.29e-08  11.7 1.00e+00 1.00e+00f  1
  14 -2.3093830e+04 0.00e+00 3.66e+04  -1.0 3.45e-07  11.2 1.00e+00 1.00e+00f  1
  15 -2.4539044e+04 0.00e+00 3.61e+04  -1.0 8.57e-08  11.6 1.00e+00 1.00e+00f  1
  16 -3.0088226e+04 0.00e+00 3.39e+04  -1.0 3.40e-07  11.2 1.00e+00 1.00e+00f  1
  17 -3.1521013e+04 0.00e+00 3.33e+04  -1.0 8.88e-08  11.6 1.00e+00 1.00e+00f  1
  18 -3.6802464e+04 0.00e+00 3.14e+04  -1.0 3.41e-07  11.1 1.00e+00 1.00e+00f  1
  19 -3.8218899e+04 0.00e+00 3.08e+04  -1.0 9.23e-08  11.5 1.00e+00 1.00e+00f  1
iter    objective    inf_pr   inf_du lg(mu)  ||d||  lg(rg) alpha_du alpha_pr  ls
  20 -4.3283038e+04 0.00e+00 2.91e+04  -1.0 3.45e-07  11.1 1.00e+00 1.00e+00f  1
  21 -4.4680185e+04 0.00e+00 2.86e+04  -1.0 9.61e-08  11.5 1.00e+00 1.00e+00f  1
  22 -4.9563466e+04 0.00e+00 2.70e+04  -1.0 3.52e-07  11.0 1.00e+00 1.00e+00f  1
  23 -5.0940515e+04 0.00e+00 2.66e+04  -1.0 1.00e-07  11.4 1.00e+00 1.00e+00f  1
  24 -5.5671729e+04 0.00e+00 2.52e+04  -1.0 3.62e-07  11.0 1.00e+00 1.00e+00f  1
  25 -5.7029190e+04 0.00e+00 2.48e+04  -1.0 1.05e-07  11.4 1.00e+00 1.00e+00f  1
  26 -6.1631657e+04 0.00e+00 2.35e+04  -1.0 3.74e-07  10.9 1.00e+00 1.00e+00f  1
  27 -6.2970717e+04 0.00e+00 2.31e+04  -1.0 1.10e-07  11.3 1.00e+00 1.00e+00f  1
  28 -6.7463560e+04 0.00e+00 2.19e+04  -1.0 3.88e-07  10.9 1.00e+00 1.00e+00f  1
  29 -6.8785701e+04 0.00e+00 2.16e+04  -1.0 1.15e-07  11.3 1.00e+00 1.00e+00f  1
iter    objective    inf_pr   inf_du lg(mu)  ||d||  lg(rg) alpha_du alpha_pr  ls
  30 -7.3184737e+04 0.00e+00 2.05e+04  -1.0 4.04e-07  10.8 1.00e+00 1.00e+00f  1
  31 -7.4491523e+04 0.00e+00 2.02e+04  -1.0 1.21e-07  11.2 1.00e+00 1.00e+00f  1
  32 -7.8809931e+04 0.00e+00 1.92e+04  -1.0 4.21e-07  10.8 1.00e+00 1.00e+00f  1
  33 -8.0102894e+04 0.00e+00 1.89e+04  -1.0 1.28e-07  11.2 1.00e+00 1.00e+00f  1
  34 -8.4351727e+04 0.00e+00 1.80e+04  -1.0 4.41e-07  10.7 1.00e+00 1.00e+00f  1
  35 -8.5632307e+04 0.00e+00 1.77e+04  -1.0 1.34e-07  11.1 1.00e+00 1.00e+00f  1
  36 -8.9820886e+04 0.00e+00 1.68e+04  -1.0 4.62e-07  10.7 1.00e+00 1.00e+00f  1
  37 -9.1090410e+04 0.00e+00 1.66e+04  -1.0 1.42e-07  11.1 1.00e+00 1.00e+00f  1
  38 -9.5226640e+04 0.00e+00 1.58e+04  -1.0 4.85e-07  10.6 1.00e+00 1.00e+00f  1
  39 -9.6486311e+04 0.00e+00 1.55e+04  -1.0 1.49e-07  11.0 1.00e+00 1.00e+00f  1
iter    objective    inf_pr   inf_du lg(mu)  ||d||  lg(rg) alpha_du alpha_pr  ls
  40 -1.0057693e+05 0.00e+00 1.48e+04  -1.0 5.09e-07  10.6 1.00e+00 1.00e+00f  1
  41 -1.0182783e+05 0.00e+00 1.46e+04  -1.0 1.58e-07  11.0 1.00e+00 1.00e+00f  1
  42 -1.0587860e+05 0.00e+00 1.39e+04  -1.0 5.36e-07  10.5 1.00e+00 1.00e+00f  1
  43 -1.0712169e+05 0.00e+00 1.37e+04  -1.0 1.66e-07  10.9 1.00e+00 1.00e+00f  1
  44 -1.1113758e+05 0.00e+00 1.31e+04  -1.0 5.65e-07  10.4 1.00e+00 1.00e+00f  1
  45 -1.1237373e+05 0.00e+00 1.29e+04  -1.0 1.76e-07  10.9 1.00e+00 1.00e+00f  1
  46 -1.1635900e+05 0.00e+00 1.23e+04  -1.0 5.95e-07  10.4 1.00e+00 1.00e+00f  1
  47 -1.1758898e+05 0.00e+00 1.21e+04  -1.0 1.86e-07  10.8 1.00e+00 1.00e+00f  1
  48 -1.2154735e+05 0.00e+00 1.15e+04  -1.0 6.28e-07  10.3 1.00e+00 1.00e+00f  1
  49 -1.2277184e+05 0.00e+00 1.14e+04  -1.0 1.97e-07  10.8 1.00e+00 1.00e+00f  1
iter    objective    inf_pr   inf_du lg(mu)  ||d||  lg(rg) alpha_du alpha_pr  ls
  50 -1.2670651e+05 0.00e+00 1.09e+04  -1.0 6.63e-07  10.3 1.00e+00 1.00e+00f  1
  51 -1.2792612e+05 0.00e+00 1.07e+04  -1.0 2.08e-07  10.7 1.00e+00 1.00e+00f  1
  52 -1.3183990e+05 0.00e+00 1.02e+04  -1.0 7.00e-07  10.2 1.00e+00 1.00e+00f  1
  53 -1.3305516e+05 0.00e+00 1.01e+04  -1.0 2.20e-07  10.7 1.00e+00 1.00e+00f  1
  54 -1.3695051e+05 0.00e+00 9.61e+03  -1.0 7.40e-07  10.2 1.00e+00 1.00e+00f  1
  55 -1.3816189e+05 0.00e+00 9.47e+03  -1.0 2.33e-07  10.6 1.00e+00 1.00e+00f  1
  56 -1.4204093e+05 0.00e+00 9.05e+03  -1.0 7.83e-07  10.1 1.00e+00 1.00e+00f  1
  57 -1.4324886e+05 0.00e+00 8.91e+03  -1.0 2.47e-07  10.6 1.00e+00 1.00e+00f  1
  58 -1.4711348e+05 0.00e+00 8.52e+03  -1.0 8.28e-07  10.1 1.00e+00 1.00e+00f  1
  59 -1.4831834e+05 0.00e+00 8.39e+03  -1.0 2.61e-07  10.5 1.00e+00 1.00e+00f  1
iter    objective    inf_pr   inf_du lg(mu)  ||d||  lg(rg) alpha_du alpha_pr  ls
  60 -1.5217017e+05 0.00e+00 8.02e+03  -1.0 8.76e-07  10.0 1.00e+00 1.00e+00f  1
  61 -1.5337229e+05 0.00e+00 7.90e+03  -1.0 2.77e-07  10.5 1.00e+00 1.00e+00f  1
  62 -1.5721279e+05 0.00e+00 7.55e+03  -1.0 9.27e-07  10.0 1.00e+00 1.00e+00f  1
  63 -1.5841246e+05 0.00e+00 7.44e+03  -1.0 2.93e-07  10.4 1.00e+00 1.00e+00f  1
  64 -1.6224291e+05 0.00e+00 7.11e+03  -1.0 9.81e-07   9.9 1.00e+00 1.00e+00f  1
  65 -1.6344040e+05 0.00e+00 7.01e+03  -1.0 3.10e-07  10.4 1.00e+00 1.00e+00f  1
  66 -1.6726190e+05 0.00e+00 6.70e+03  -1.0 1.04e-06   9.9 1.00e+00 1.00e+00f  1
  67 -1.6845745e+05 0.00e+00 6.60e+03  -1.0 3.29e-07  10.3 1.00e+00 1.00e+00f  1
  68 -1.7227101e+05 0.00e+00 6.31e+03  -1.0 1.10e-06   9.8 1.00e+00 1.00e+00f  1
  69 -1.7346481e+05 0.00e+00 6.22e+03  -1.0 3.48e-07  10.3 1.00e+00 1.00e+00f  1
iter    objective    inf_pr   inf_du lg(mu)  ||d||  lg(rg) alpha_du alpha_pr  ls
  70 -1.7727131e+05 0.00e+00 5.94e+03  -1.0 1.17e-06   9.8 1.00e+00 1.00e+00f  1
  71 -1.7846356e+05 0.00e+00 5.86e+03  -1.0 3.69e-07  10.2 1.00e+00 1.00e+00f  1
  72 -1.8226377e+05 0.00e+00 5.60e+03  -1.0 1.23e-06   9.7 1.00e+00 1.00e+00f  1
  73 -1.8345462e+05 0.00e+00 5.52e+03  -1.0 3.91e-07  10.2 1.00e+00 1.00e+00f  1
  74 -1.8724923e+05 0.00e+00 5.28e+03  -1.0 1.31e-06   9.7 1.00e+00 1.00e+00f  1
  75 -1.8843883e+05 0.00e+00 5.20e+03  -1.0 4.15e-07  10.1 1.00e+00 1.00e+00f  1
  76 -1.9222844e+05 0.00e+00 4.97e+03  -1.0 1.39e-06   9.6 1.00e+00 1.00e+00f  1
  77 -1.9341694e+05 0.00e+00 4.90e+03  -1.0 4.40e-07  10.1 1.00e+00 1.00e+00f  1
  78 -1.9720209e+05 0.00e+00 4.69e+03  -1.0 1.47e-06   9.6 1.00e+00 1.00e+00f  1
  79 -1.9838958e+05 0.00e+00 4.62e+03  -1.0 4.66e-07  10.0 1.00e+00 1.00e+00f  1
iter    objective    inf_pr   inf_du lg(mu)  ||d||  lg(rg) alpha_du alpha_pr  ls
  80 -2.0217075e+05 0.00e+00 4.42e+03  -1.0 1.56e-06   9.5 1.00e+00 1.00e+00f  1
  81 -2.0335735e+05 0.00e+00 4.35e+03  -1.0 4.94e-07  10.0 1.00e+00 1.00e+00f  1
  82 -2.0713496e+05 0.00e+00 4.16e+03  -1.0 1.65e-06   9.5 1.00e+00 1.00e+00f  1
  83 -2.0832076e+05 0.00e+00 4.10e+03  -1.0 5.24e-07   9.9 1.00e+00 1.00e+00f  1
  84 -2.1209519e+05 0.00e+00 3.92e+03  -1.0 1.75e-06   9.4 1.00e+00 1.00e+00f  1
  85 -2.1328026e+05 0.00e+00 3.87e+03  -1.0 5.56e-07   9.9 1.00e+00 1.00e+00f  1
  86 -2.1705185e+05 0.00e+00 3.70e+03  -1.0 1.85e-06   9.4 1.00e+00 1.00e+00f  1
  87 -2.1823627e+05 0.00e+00 3.64e+03  -1.0 5.89e-07   9.8 1.00e+00 1.00e+00f  1
  88 -2.2200531e+05 0.00e+00 3.49e+03  -1.0 1.97e-06   9.3 1.00e+00 1.00e+00f  1
  89 -2.2318914e+05 0.00e+00 3.44e+03  -1.0 6.25e-07   9.7 1.00e+00 1.00e+00f  1
iter    objective    inf_pr   inf_du lg(mu)  ||d||  lg(rg) alpha_du alpha_pr  ls
  90 -2.2695590e+05 0.00e+00 3.28e+03  -1.0 2.08e-06   9.3 1.00e+00 1.00e+00f  1
  91 -2.2813920e+05 0.00e+00 3.24e+03  -1.0 6.63e-07   9.7 1.00e+00 1.00e+00f  1
  92 -2.3190389e+05 0.00e+00 3.10e+03  -1.0 2.21e-06   9.2 1.00e+00 1.00e+00f  1
  93 -2.3308671e+05 0.00e+00 3.05e+03  -1.0 7.03e-07   9.6 1.00e+00 1.00e+00f  1
  94 -2.3684955e+05 0.00e+00 2.92e+03  -1.0 2.34e-06   9.2 1.00e+00 1.00e+00f  1
  95 -2.3803193e+05 0.00e+00 2.88e+03  -1.0 7.45e-07   9.6 1.00e+00 1.00e+00f  1
  96 -2.4179310e+05 0.00e+00 2.75e+03  -1.0 2.48e-06   9.1 1.00e+00 1.00e+00f  1
  97 -2.4297508e+05 0.00e+00 2.71e+03  -1.0 7.90e-07   9.5 1.00e+00 1.00e+00f  1
  98 -2.4673472e+05 0.00e+00 2.59e+03  -1.0 2.63e-06   9.1 1.00e+00 1.00e+00f  1
  99 -2.4791634e+05 0.00e+00 2.56e+03  -1.0 8.38e-07   9.5 1.00e+00 1.00e+00f  1
iter    objective    inf_pr   inf_du lg(mu)  ||d||  lg(rg) alpha_du alpha_pr  ls
 100 -2.5167460e+05 0.00e+00 2.45e+03  -1.0 2.79e-06   9.0 1.00e+00 1.00e+00f  1
 101 -2.5285588e+05 0.00e+00 2.41e+03  -1.0 8.89e-07   9.4 1.00e+00 1.00e+00f  1
 102 -2.5661288e+05 0.00e+00 2.30e+03  -1.0 2.96e-06   9.0 1.00e+00 1.00e+00f  1
 103 -2.5779385e+05 0.00e+00 2.27e+03  -1.0 9.42e-07   9.4 1.00e+00 1.00e+00f  1
 104 -2.6154970e+05 0.00e+00 2.17e+03  -1.0 3.14e-06   8.9 1.00e+00 1.00e+00f  1
 105 -2.6273038e+05 0.00e+00 2.14e+03  -1.0 9.99e-07   9.3 1.00e+00 1.00e+00f  1
 106 -2.6648520e+05 0.00e+00 2.05e+03  -1.0 3.33e-06   8.9 1.00e+00 1.00e+00f  1
 107 -2.6766562e+05 0.00e+00 2.02e+03  -1.0 1.06e-06   9.3 1.00e+00 1.00e+00f  1
 108 -2.7141948e+05 0.00e+00 1.93e+03  -1.0 3.53e-06   8.8 1.00e+00 1.00e+00f  1
 109 -2.7259966e+05 0.00e+00 1.90e+03  -1.0 1.12e-06   9.2 1.00e+00 1.00e+00f  1
iter    objective    inf_pr   inf_du lg(mu)  ||d||  lg(rg) alpha_du alpha_pr  ls
 110 -2.7635268e+05 0.00e+00 1.82e+03  -1.0 3.75e-06   8.8 1.00e+00 1.00e+00f  1
 111 -2.7753264e+05 0.00e+00 1.79e+03  -1.0 1.19e-06   9.2 1.00e+00 1.00e+00f  1
 112 -2.8128488e+05 0.00e+00 1.72e+03  -1.0 3.97e-06   8.7 1.00e+00 1.00e+00f  1
 113 -2.8246465e+05 0.00e+00 1.69e+03  -1.0 1.26e-06   9.1 1.00e+00 1.00e+00f  1
 114 -2.8621620e+05 0.00e+00 1.62e+03  -1.0 4.22e-06   8.7 1.00e+00 1.00e+00f  1
 115 -2.8739580e+05 0.00e+00 1.60e+03  -1.0 1.34e-06   9.1 1.00e+00 1.00e+00f  1
 116 -2.9114673e+05 0.00e+00 1.53e+03  -1.0 4.47e-06   8.6 1.00e+00 1.00e+00f  1
 117 -2.9232616e+05 0.00e+00 1.50e+03  -1.0 1.42e-06   9.0 1.00e+00 1.00e+00f  1
 118 -2.9607654e+05 0.00e+00 1.44e+03  -1.0 4.74e-06   8.6 1.00e+00 1.00e+00f  1
 119 -2.9725583e+05 0.00e+00 1.42e+03  -1.0 1.51e-06   9.0 1.00e+00 1.00e+00f  1
iter    objective    inf_pr   inf_du lg(mu)  ||d||  lg(rg) alpha_du alpha_pr  ls
 120 -3.0100570e+05 0.00e+00 1.36e+03  -1.0 5.03e-06   8.5 1.00e+00 1.00e+00f  1
 121 -3.0218487e+05 0.00e+00 1.34e+03  -1.0 1.60e-06   8.9 1.00e+00 1.00e+00f  1
 122 -3.0593429e+05 0.00e+00 1.28e+03  -1.0 5.33e-06   8.5 1.00e+00 1.00e+00f  1
 123 -3.0711334e+05 0.00e+00 1.26e+03  -1.0 1.70e-06   8.9 1.00e+00 1.00e+00f  1
 124 -3.1086236e+05 0.00e+00 1.21e+03  -1.0 5.66e-06   8.4 1.00e+00 1.00e+00f  1
 125 -3.1204130e+05 0.00e+00 1.19e+03  -1.0 1.80e-06   8.8 1.00e+00 1.00e+00f  1
 126 -3.1578996e+05 0.00e+00 1.14e+03  -1.0 6.00e-06   8.4 1.00e+00 1.00e+00f  1
 127 -3.1696881e+05 0.00e+00 1.12e+03  -1.0 1.91e-06   8.8 1.00e+00 1.00e+00f  1
 128 -3.2071714e+05 0.00e+00 1.07e+03  -1.0 6.36e-06   8.3 1.00e+00 1.00e+00f  1
 129 -3.2189591e+05 0.00e+00 1.06e+03  -1.0 2.03e-06   8.7 1.00e+00 1.00e+00f  1
iter    objective    inf_pr   inf_du lg(mu)  ||d||  lg(rg) alpha_du alpha_pr  ls
 130 -3.2564394e+05 0.00e+00 1.01e+03  -1.0 6.75e-06   8.2 1.00e+00 1.00e+00f  1
 131 -3.2682263e+05 0.00e+00 9.96e+02  -1.0 2.15e-06   8.7 1.00e+00 1.00e+00f  1
 132 -3.3057040e+05 0.00e+00 9.52e+02  -1.0 7.16e-06   8.2 1.00e+00 1.00e+00f  1
 133 -3.3174902e+05 0.00e+00 9.39e+02  -1.0 2.28e-06   8.6 1.00e+00 1.00e+00f  1
 134 -3.3549655e+05 0.00e+00 8.98e+02  -1.0 7.59e-06   8.1 1.00e+00 1.00e+00f  1
 135 -3.3667510e+05 0.00e+00 8.85e+02  -1.0 2.42e-06   8.6 1.00e+00 1.00e+00f  1
 136 -3.4042242e+05 0.00e+00 8.46e+02  -1.0 8.05e-06   8.1 1.00e+00 1.00e+00f  1
 137 -3.4160091e+05 0.00e+00 8.34e+02  -1.0 2.56e-06   8.5 1.00e+00 1.00e+00f  1
 138 -3.4534803e+05 0.00e+00 7.98e+02  -1.0 8.54e-06   8.0 1.00e+00 1.00e+00f  1
 139 -3.4652647e+05 0.00e+00 7.87e+02  -1.0 2.72e-06   8.5 1.00e+00 1.00e+00f  1
iter    objective    inf_pr   inf_du lg(mu)  ||d||  lg(rg) alpha_du alpha_pr  ls
 140 -3.5027341e+05 0.00e+00 7.52e+02  -1.0 9.06e-06   8.0 1.00e+00 1.00e+00f  1
 141 -3.5145180e+05 0.00e+00 7.42e+02  -1.0 2.88e-06   8.4 1.00e+00 1.00e+00f  1
 142 -3.5519858e+05 0.00e+00 7.09e+02  -1.0 9.61e-06   7.9 1.00e+00 1.00e+00f  1
 143 -3.5637693e+05 0.00e+00 6.99e+02  -1.0 3.06e-06   8.4 1.00e+00 1.00e+00f  1
 144 -3.6012356e+05 0.00e+00 6.69e+02  -1.0 1.02e-05   7.9 1.00e+00 1.00e+00f  1
 145 -3.6130187e+05 0.00e+00 6.59e+02  -1.0 3.24e-06   8.3 1.00e+00 1.00e+00f  1
 146 -3.6504837e+05 0.00e+00 6.30e+02  -1.0 1.08e-05   7.8 1.00e+00 1.00e+00f  1
 147 -3.6622664e+05 0.00e+00 6.21e+02  -1.0 3.44e-06   8.3 1.00e+00 1.00e+00f  1
 148 -3.6997302e+05 0.00e+00 5.94e+02  -1.0 1.15e-05   7.8 1.00e+00 1.00e+00f  1
 149 -3.7115126e+05 0.00e+00 5.86e+02  -1.0 3.65e-06   8.2 1.00e+00 1.00e+00f  1
iter    objective    inf_pr   inf_du lg(mu)  ||d||  lg(rg) alpha_du alpha_pr  ls
 150 -3.7489753e+05 0.00e+00 5.60e+02  -1.0 1.22e-05   7.7 1.00e+00 1.00e+00f  1
 151 -3.7607574e+05 0.00e+00 5.52e+02  -1.0 3.87e-06   8.2 1.00e+00 1.00e+00f  1
 152 -3.7982191e+05 0.00e+00 5.28e+02  -1.0 1.29e-05   7.7 1.00e+00 1.00e+00f  1
 153 -3.8100009e+05 0.00e+00 5.21e+02  -1.0 4.10e-06   8.1 1.00e+00 1.00e+00f  1
 154 -3.8474616e+05 0.00e+00 4.98e+02  -1.0 1.37e-05   7.6 1.00e+00 1.00e+00f  1
 155 -3.8592431e+05 0.00e+00 4.91e+02  -1.0 4.35e-06   8.1 1.00e+00 1.00e+00f  1
 156 -3.8967031e+05 0.00e+00 4.70e+02  -1.0 1.45e-05   7.6 1.00e+00 1.00e+00f  1
 157 -3.9084844e+05 0.00e+00 4.63e+02  -1.0 4.62e-06   8.0 1.00e+00 1.00e+00f  1
 158 -3.9459435e+05 0.00e+00 4.43e+02  -1.0 1.54e-05   7.5 1.00e+00 1.00e+00f  1
 159 -3.9577246e+05 0.00e+00 4.36e+02  -1.0 4.90e-06   8.0 1.00e+00 1.00e+00f  1
iter    objective    inf_pr   inf_du lg(mu)  ||d||  lg(rg) alpha_du alpha_pr  ls
 160 -3.9951830e+05 0.00e+00 4.17e+02  -1.0 1.63e-05   7.5 1.00e+00 1.00e+00f  1
 161 -4.0069639e+05 0.00e+00 4.11e+02  -1.0 5.19e-06   7.9 1.00e+00 1.00e+00f  1
 162 -4.0444217e+05 0.00e+00 3.94e+02  -1.0 1.73e-05   7.4 1.00e+00 1.00e+00f  1
 163 -4.0562024e+05 0.00e+00 3.88e+02  -1.0 5.51e-06   7.9 1.00e+00 1.00e+00f  1
 164 -4.0936596e+05 0.00e+00 3.71e+02  -1.0 1.84e-05   7.4 1.00e+00 1.00e+00f  1
 165 -4.1054402e+05 0.00e+00 3.66e+02  -1.0 5.84e-06   7.8 1.00e+00 1.00e+00f  1
 166 -4.1428968e+05 0.00e+00 3.50e+02  -1.0 1.95e-05   7.3 1.00e+00 1.00e+00f  1
 167 -4.1546772e+05 0.00e+00 3.45e+02  -1.0 6.20e-06   7.8 1.00e+00 1.00e+00f  1
 168 -4.1921334e+05 0.00e+00 3.30e+02  -1.0 2.07e-05   7.3 1.00e+00 1.00e+00f  1
 169 -4.2039136e+05 0.00e+00 3.25e+02  -1.0 6.57e-06   7.7 1.00e+00 1.00e+00f  1
iter    objective    inf_pr   inf_du lg(mu)  ||d||  lg(rg) alpha_du alpha_pr  ls
 170 -4.2413693e+05 0.00e+00 3.11e+02  -1.0 2.19e-05   7.2 1.00e+00 1.00e+00f  1
 171 -4.2531494e+05 0.00e+00 3.07e+02  -1.0 6.97e-06   7.7 1.00e+00 1.00e+00f  1
 172 -4.2906047e+05 0.00e+00 2.93e+02  -1.0 2.32e-05   7.2 1.00e+00 1.00e+00f  1
 173 -4.3023846e+05 0.00e+00 2.89e+02  -1.0 7.40e-06   7.6 1.00e+00 1.00e+00f  1
 174 -4.3398395e+05 0.00e+00 2.76e+02  -1.0 2.46e-05   7.1 1.00e+00 1.00e+00f  1
 175 -4.3516193e+05 0.00e+00 2.72e+02  -1.0 7.85e-06   7.5 1.00e+00 1.00e+00f  1
 176 -4.3890739e+05 0.00e+00 2.61e+02  -1.0 2.61e-05   7.1 1.00e+00 1.00e+00f  1
 177 -4.4008536e+05 0.00e+00 2.57e+02  -1.0 8.32e-06   7.5 1.00e+00 1.00e+00f  1
 178 -4.4383078e+05 0.00e+00 2.46e+02  -1.0 2.77e-05   7.0 1.00e+00 1.00e+00f  1
 179 -4.4500874e+05 0.00e+00 2.42e+02  -1.0 8.83e-06   7.4 1.00e+00 1.00e+00f  1
iter    objective    inf_pr   inf_du lg(mu)  ||d||  lg(rg) alpha_du alpha_pr  ls
 180 -4.4875413e+05 0.00e+00 2.32e+02  -1.0 2.94e-05   7.0 1.00e+00 1.00e+00f  1
 181 -4.4993209e+05 0.00e+00 2.28e+02  -1.0 9.36e-06   7.4 1.00e+00 1.00e+00f  1
 182 -4.5367745e+05 0.00e+00 2.18e+02  -1.0 3.12e-05   6.9 1.00e+00 1.00e+00f  1
 183 -4.5485539e+05 0.00e+00 2.15e+02  -1.0 9.93e-06   7.3 1.00e+00 1.00e+00f  1
 184 -4.5860073e+05 0.00e+00 2.06e+02  -1.0 3.31e-05   6.9 1.00e+00 1.00e+00f  1
 185 -4.5977866e+05 0.00e+00 2.03e+02  -1.0 1.05e-05   7.3 1.00e+00 1.00e+00f  1
 186 -4.6352397e+05 0.00e+00 1.94e+02  -1.0 3.51e-05   6.8 1.00e+00 1.00e+00f  1
 187 -4.6470190e+05 0.00e+00 1.91e+02  -1.0 1.12e-05   7.2 1.00e+00 1.00e+00f  1
 188 -4.6844719e+05 0.00e+00 1.83e+02  -1.0 3.72e-05   6.8 1.00e+00 1.00e+00f  1
 189 -4.6962511e+05 0.00e+00 1.80e+02  -1.0 1.18e-05   7.2 1.00e+00 1.00e+00f  1
iter    objective    inf_pr   inf_du lg(mu)  ||d||  lg(rg) alpha_du alpha_pr  ls
 190 -4.7337038e+05 0.00e+00 1.73e+02  -1.0 3.95e-05   6.7 1.00e+00 1.00e+00f  1
 191 -4.7454829e+05 0.00e+00 1.70e+02  -1.0 1.26e-05   7.1 1.00e+00 1.00e+00f  1
 192 -4.7829354e+05 0.00e+00 1.63e+02  -1.0 4.19e-05   6.7 1.00e+00 1.00e+00f  1
 193 -4.7947144e+05 0.00e+00 1.60e+02  -1.0 1.33e-05   7.1 1.00e+00 1.00e+00f  1
 194 -4.8321667e+05 0.00e+00 1.53e+02  -1.0 4.44e-05   6.6 1.00e+00 1.00e+00f  1
 195 -4.8439457e+05 0.00e+00 1.51e+02  -1.0 1.41e-05   7.0 1.00e+00 1.00e+00f  1
 196 -4.8813978e+05 0.00e+00 1.45e+02  -1.0 4.71e-05   6.6 1.00e+00 1.00e+00f  1
 197 -4.8931768e+05 0.00e+00 1.43e+02  -1.0 1.50e-05   7.0 1.00e+00 1.00e+00f  1
 198 -4.9306288e+05 0.00e+00 1.36e+02  -1.0 5.00e-05   6.5 1.00e+00 1.00e+00f  1
 199 -4.9424077e+05 0.00e+00 1.34e+02  -1.0 1.59e-05   6.9 1.00e+00 1.00e+00f  1
iter    objective    inf_pr   inf_du lg(mu)  ||d||  lg(rg) alpha_du alpha_pr  ls
 200 -4.9798595e+05 0.00e+00 1.29e+02  -1.0 5.30e-05   6.5 1.00e+00 1.00e+00f  1
 201 -4.9916383e+05 0.00e+00 1.27e+02  -1.0 1.69e-05   6.9 1.00e+00 1.00e+00f  1
 202 -5.0290900e+05 0.00e+00 1.21e+02  -1.0 5.62e-05   6.4 1.00e+00 1.00e+00f  1
 203 -5.0408688e+05 0.00e+00 1.19e+02  -1.0 1.79e-05   6.8 1.00e+00 1.00e+00f  1
 204 -5.0783203e+05 0.00e+00 1.14e+02  -1.0 5.96e-05   6.4 1.00e+00 1.00e+00f  1
 205 -5.0900991e+05 0.00e+00 1.13e+02  -1.0 1.90e-05   6.8 1.00e+00 1.00e+00f  1
 206 -5.1275505e+05 0.00e+00 1.08e+02  -1.0 6.32e-05   6.3 1.00e+00 1.00e+00f  1
 207 -5.1393292e+05 0.00e+00 1.06e+02  -1.0 2.01e-05   6.7 1.00e+00 1.00e+00f  1
 208 -5.1767805e+05 0.00e+00 1.02e+02  -1.0 6.71e-05   6.3 1.00e+00 1.00e+00f  1
 209 -5.1885592e+05 0.00e+00 1.00e+02  -1.0 2.13e-05   6.7 1.00e+00 1.00e+00f  1
iter    objective    inf_pr   inf_du lg(mu)  ||d||  lg(rg) alpha_du alpha_pr  ls
 210 -5.2260104e+05 0.00e+00 9.58e+01  -1.0 7.11e-05   6.2 1.00e+00 1.00e+00f  1
 211 -5.2377891e+05 0.00e+00 9.44e+01  -1.0 2.26e-05   6.6 1.00e+00 1.00e+00f  1
 212 -5.2752402e+05 0.00e+00 9.03e+01  -1.0 7.55e-05   6.2 1.00e+00 1.00e+00f  1
 213 -5.2870188e+05 0.00e+00 8.90e+01  -1.0 2.40e-05   6.6 1.00e+00 1.00e+00f  1
 214 -5.3244698e+05 0.00e+00 8.51e+01  -1.0 8.00e-05   6.1 1.00e+00 1.00e+00f  1
 215 -5.3362484e+05 0.00e+00 8.39e+01  -1.0 2.55e-05   6.5 1.00e+00 1.00e+00f  1
 216 -5.3736993e+05 0.00e+00 8.02e+01  -1.0 8.49e-05   6.0 1.00e+00 1.00e+00f  1
 217 -5.3854778e+05 0.00e+00 7.91e+01  -1.0 2.70e-05   6.5 1.00e+00 1.00e+00f  1
 218 -5.4229286e+05 0.00e+00 7.57e+01  -1.0 9.00e-05   6.0 1.00e+00 1.00e+00f  1
 219 -5.4347071e+05 0.00e+00 7.46e+01  -1.0 2.87e-05   6.4 1.00e+00 1.00e+00f  1
iter    objective    inf_pr   inf_du lg(mu)  ||d||  lg(rg) alpha_du alpha_pr  ls
 220 -5.4721579e+05 0.00e+00 7.13e+01  -1.0 9.55e-05   5.9 1.00e+00 1.00e+00f  1
 221 -5.4839364e+05 0.00e+00 7.03e+01  -1.0 3.04e-05   6.4 1.00e+00 1.00e+00f  1
 222 -5.5213870e+05 0.00e+00 6.73e+01  -1.0 1.01e-04   5.9 1.00e+00 1.00e+00f  1
 223 -5.5331655e+05 0.00e+00 6.63e+01  -1.0 3.22e-05   6.3 1.00e+00 1.00e+00f  1
 224 -5.5706161e+05 0.00e+00 6.34e+01  -1.0 1.07e-04   5.8 1.00e+00 1.00e+00f  1
 225 -5.5823946e+05 0.00e+00 6.25e+01  -1.0 3.42e-05   6.3 1.00e+00 1.00e+00f  1
 226 -5.6198451e+05 0.00e+00 5.98e+01  -1.0 1.14e-04   5.8 1.00e+00 1.00e+00f  1
 227 -5.6316235e+05 0.00e+00 5.89e+01  -1.0 3.63e-05   6.2 1.00e+00 1.00e+00f  1
 228 -5.6690739e+05 0.00e+00 5.64e+01  -1.0 1.21e-04   5.7 1.00e+00 1.00e+00f  1
 229 -5.6808524e+05 0.00e+00 5.56e+01  -1.0 3.85e-05   6.2 1.00e+00 1.00e+00f  1
iter    objective    inf_pr   inf_du lg(mu)  ||d||  lg(rg) alpha_du alpha_pr  ls
 230 -5.7183027e+05 0.00e+00 5.31e+01  -1.0 1.28e-04   5.7 1.00e+00 1.00e+00f  1
 231 -5.7300811e+05 0.00e+00 5.24e+01  -1.0 4.08e-05   6.1 1.00e+00 1.00e+00f  1
 232 -5.7675315e+05 0.00e+00 5.01e+01  -1.0 1.36e-04   5.6 1.00e+00 1.00e+00f  1
 233 -5.7793098e+05 0.00e+00 4.94e+01  -1.0 4.33e-05   6.1 1.00e+00 1.00e+00f  1
 234 -5.8167601e+05 0.00e+00 4.72e+01  -1.0 1.44e-04   5.6 1.00e+00 1.00e+00f  1
 235 -5.8285385e+05 0.00e+00 4.66e+01  -1.0 4.59e-05   6.0 1.00e+00 1.00e+00f  1
 236 -5.8659887e+05 0.00e+00 4.45e+01  -1.0 1.53e-04   5.5 1.00e+00 1.00e+00f  1
 237 -5.8777670e+05 0.00e+00 4.39e+01  -1.0 4.87e-05   6.0 1.00e+00 1.00e+00f  1
 238 -5.9152172e+05 0.00e+00 4.20e+01  -1.0 1.62e-04   5.5 1.00e+00 1.00e+00f  1
 239 -5.9269955e+05 0.00e+00 4.14e+01  -1.0 5.16e-05   5.9 1.00e+00 1.00e+00f  1
iter    objective    inf_pr   inf_du lg(mu)  ||d||  lg(rg) alpha_du alpha_pr  ls
 240 -5.9644456e+05 0.00e+00 3.96e+01  -1.0 1.72e-04   5.4 1.00e+00 1.00e+00f  1
 241 -5.9762239e+05 0.00e+00 3.90e+01  -1.0 5.48e-05   5.9 1.00e+00 1.00e+00f  1
 242 -6.0136740e+05 0.00e+00 3.73e+01  -1.0 1.83e-04   5.4 1.00e+00 1.00e+00f  1
 243 -6.0254523e+05 0.00e+00 3.68e+01  -1.0 5.81e-05   5.8 1.00e+00 1.00e+00f  1
 244 -6.0629023e+05 0.00e+00 3.52e+01  -1.0 1.94e-04   5.3 1.00e+00 1.00e+00f  1
 245 -6.0746806e+05 0.00e+00 3.47e+01  -1.0 6.16e-05   5.8 1.00e+00 1.00e+00f  1
 246 -6.1121306e+05 0.00e+00 3.32e+01  -1.0 2.05e-04   5.3 1.00e+00 1.00e+00f  1
 247 -6.1239088e+05 0.00e+00 3.27e+01  -1.0 6.54e-05   5.7 1.00e+00 1.00e+00f  1
 248 -6.1613588e+05 0.00e+00 3.13e+01  -1.0 2.18e-04   5.2 1.00e+00 1.00e+00f  1
 249 -6.1731370e+05 0.00e+00 3.08e+01  -1.0 6.93e-05   5.7 1.00e+00 1.00e+00f  1
iter    objective    inf_pr   inf_du lg(mu)  ||d||  lg(rg) alpha_du alpha_pr  ls
 250 -6.2105870e+05 0.00e+00 2.95e+01  -1.0 2.31e-04   5.2 1.00e+00 1.00e+00f  1
 251 -6.2223652e+05 0.00e+00 2.91e+01  -1.0 7.35e-05   5.6 1.00e+00 1.00e+00f  1
 252 -6.2598151e+05 0.00e+00 2.78e+01  -1.0 2.45e-04   5.1 1.00e+00 1.00e+00f  1
 253 -6.2715933e+05 0.00e+00 2.74e+01  -1.0 7.80e-05   5.6 1.00e+00 1.00e+00f  1
 254 -6.3090431e+05 0.00e+00 2.62e+01  -1.0 2.60e-04   5.1 1.00e+00 1.00e+00f  1
 255 -6.3208213e+05 0.00e+00 2.58e+01  -1.0 8.27e-05   5.5 1.00e+00 1.00e+00f  1
 256 -6.3582712e+05 0.00e+00 2.47e+01  -1.0 2.76e-04   5.0 1.00e+00 1.00e+00f  1
 257 -6.3700494e+05 0.00e+00 2.44e+01  -1.0 8.77e-05   5.5 1.00e+00 1.00e+00f  1
 258 -6.4074992e+05 0.00e+00 2.33e+01  -1.0 2.92e-04   5.0 1.00e+00 1.00e+00f  1
 259 -6.4192773e+05 0.00e+00 2.30e+01  -1.0 9.31e-05   5.4 1.00e+00 1.00e+00f  1
iter    objective    inf_pr   inf_du lg(mu)  ||d||  lg(rg) alpha_du alpha_pr  ls
 260 -6.4567271e+05 0.00e+00 2.20e+01  -1.0 3.10e-04   4.9 1.00e+00 1.00e+00f  1
 261 -6.4685053e+05 0.00e+00 2.17e+01  -1.0 9.87e-05   5.4 1.00e+00 1.00e+00f  1
 262 -6.5059550e+05 0.00e+00 2.07e+01  -1.0 3.29e-04   4.9 1.00e+00 1.00e+00f  1
 263 -6.5177332e+05 0.00e+00 2.04e+01  -1.0 1.05e-04   5.3 1.00e+00 1.00e+00f  1
 264 -6.5551829e+05 0.00e+00 1.95e+01  -1.0 3.49e-04   4.8 1.00e+00 1.00e+00f  1
 265 -6.5669610e+05 0.00e+00 1.92e+01  -1.0 1.11e-04   5.2 1.00e+00 1.00e+00f  1
 266 -6.6044107e+05 0.00e+00 1.84e+01  -1.0 3.70e-04   4.8 1.00e+00 1.00e+00f  1
 267 -6.6161888e+05 0.00e+00 1.81e+01  -1.0 1.18e-04   5.2 1.00e+00 1.00e+00f  1
 268 -6.6536385e+05 0.00e+00 1.74e+01  -1.0 3.93e-04   4.7 1.00e+00 1.00e+00f  1
 269 -6.6654166e+05 0.00e+00 1.71e+01  -1.0 1.25e-04   5.1 1.00e+00 1.00e+00f  1
iter    objective    inf_pr   inf_du lg(mu)  ||d||  lg(rg) alpha_du alpha_pr  ls
 270 -6.7028662e+05 0.00e+00 1.64e+01  -1.0 4.16e-04   4.7 1.00e+00 1.00e+00f  1
 271 -6.7146444e+05 0.00e+00 1.61e+01  -1.0 1.33e-04   5.1 1.00e+00 1.00e+00f  1
 272 -6.7520940e+05 0.00e+00 1.54e+01  -1.0 4.42e-04   4.6 1.00e+00 1.00e+00f  1
 273 -6.7638721e+05 0.00e+00 1.52e+01  -1.0 1.41e-04   5.0 1.00e+00 1.00e+00f  1
 274 -6.8013217e+05 0.00e+00 1.45e+01  -1.0 4.68e-04   4.6 1.00e+00 1.00e+00f  1
 275 -6.8130998e+05 0.00e+00 1.43e+01  -1.0 1.49e-04   5.0 1.00e+00 1.00e+00f  1
 276 -6.8505493e+05 0.00e+00 1.37e+01  -1.0 4.97e-04   4.5 1.00e+00 1.00e+00f  1
 277 -6.8623274e+05 0.00e+00 1.35e+01  -1.0 1.58e-04   4.9 1.00e+00 1.00e+00f  1
 278 -6.8997770e+05 0.00e+00 1.29e+01  -1.0 5.27e-04   4.5 1.00e+00 1.00e+00f  1
 279 -6.9115551e+05 0.00e+00 1.27e+01  -1.0 1.68e-04   4.9 1.00e+00 1.00e+00f  1
iter    objective    inf_pr   inf_du lg(mu)  ||d||  lg(rg) alpha_du alpha_pr  ls
 280 -6.9490046e+05 0.00e+00 1.22e+01  -1.0 5.59e-04   4.4 1.00e+00 1.00e+00f  1
 281 -6.9607827e+05 0.00e+00 1.20e+01  -1.0 1.78e-04   4.8 1.00e+00 1.00e+00f  1
 282 -6.9982322e+05 0.00e+00 1.15e+01  -1.0 5.93e-04   4.4 1.00e+00 1.00e+00f  1
 283 -7.0100103e+05 0.00e+00 1.13e+01  -1.0 1.89e-04   4.8 1.00e+00 1.00e+00f  1
 284 -7.0474598e+05 0.00e+00 1.08e+01  -1.0 6.29e-04   4.3 1.00e+00 1.00e+00f  1
 285 -7.0592378e+05 0.00e+00 1.07e+01  -1.0 2.00e-04   4.7 1.00e+00 1.00e+00f  1
 286 -7.0966873e+05 0.00e+00 1.02e+01  -1.0 6.67e-04   4.3 1.00e+00 1.00e+00f  1
 287 -7.1084654e+05 0.00e+00 1.01e+01  -1.0 2.12e-04   4.7 1.00e+00 1.00e+00f  1
 288 -7.1459148e+05 0.00e+00 9.63e+00  -1.0 7.07e-04   4.2 1.00e+00 1.00e+00f  1
 289 -7.1576929e+05 0.00e+00 9.49e+00  -1.0 2.25e-04   4.6 1.00e+00 1.00e+00f  1
iter    objective    inf_pr   inf_du lg(mu)  ||d||  lg(rg) alpha_du alpha_pr  ls
 290 -7.1951423e+05 0.00e+00 9.08e+00  -1.0 7.50e-04   4.2 1.00e+00 1.00e+00f  1
 291 -7.2069204e+05 0.00e+00 8.95e+00  -1.0 2.39e-04   4.6 1.00e+00 1.00e+00f  1
 292 -7.2443698e+05 0.00e+00 8.56e+00  -1.0 7.96e-04   4.1 1.00e+00 1.00e+00f  1
 293 -7.2561478e+05 0.00e+00 8.44e+00  -1.0 2.53e-04   4.5 1.00e+00 1.00e+00f  1
 294 -7.2935972e+05 0.00e+00 8.07e+00  -1.0 8.44e-04   4.1 1.00e+00 1.00e+00f  1
 295 -7.3053753e+05 0.00e+00 7.96e+00  -1.0 2.69e-04   4.5 1.00e+00 1.00e+00f  1
 296 -7.3428247e+05 0.00e+00 7.61e+00  -1.0 8.95e-04   4.0 1.00e+00 1.00e+00f  1
 297 -7.3546027e+05 0.00e+00 7.50e+00  -1.0 2.85e-04   4.4 1.00e+00 1.00e+00f  1
 298 -7.3920521e+05 0.00e+00 7.17e+00  -1.0 9.49e-04   4.0 1.00e+00 1.00e+00f  1
 299 -7.4038301e+05 0.00e+00 7.07e+00  -1.0 3.02e-04   4.4 1.00e+00 1.00e+00f  1
iter    objective    inf_pr   inf_du lg(mu)  ||d||  lg(rg) alpha_du alpha_pr  ls
 300 -7.4412795e+05 0.00e+00 6.76e+00  -1.0 1.01e-03   3.9 1.00e+00 1.00e+00f  1
 301 -7.4530575e+05 0.00e+00 6.67e+00  -1.0 3.21e-04   4.3 1.00e+00 1.00e+00f  1
 302 -7.4905068e+05 0.00e+00 6.38e+00  -1.0 1.07e-03   3.9 1.00e+00 1.00e+00f  1
 303 -7.5022849e+05 0.00e+00 6.29e+00  -1.0 3.40e-04   4.3 1.00e+00 1.00e+00f  1
 304 -7.5397342e+05 0.00e+00 6.01e+00  -1.0 1.13e-03   3.8 1.00e+00 1.00e+00f  1
 305 -7.5515122e+05 0.00e+00 5.93e+00  -1.0 3.61e-04   4.2 1.00e+00 1.00e+00f  1
 306 -7.5889615e+05 0.00e+00 5.67e+00  -1.0 1.20e-03   3.7 1.00e+00 1.00e+00f  1
 307 -7.6007395e+05 0.00e+00 5.59e+00  -1.0 3.82e-04   4.2 1.00e+00 1.00e+00f  1
 308 -7.6381889e+05 0.00e+00 5.34e+00  -1.0 1.27e-03   3.7 1.00e+00 1.00e+00f  1
 309 -7.6499669e+05 0.00e+00 5.27e+00  -1.0 4.06e-04   4.1 1.00e+00 1.00e+00f  1
iter    objective    inf_pr   inf_du lg(mu)  ||d||  lg(rg) alpha_du alpha_pr  ls
 310 -7.6874162e+05 0.00e+00 5.04e+00  -1.0 1.35e-03   3.6 1.00e+00 1.00e+00f  1
 311 -7.6991942e+05 0.00e+00 4.97e+00  -1.0 4.30e-04   4.1 1.00e+00 1.00e+00f  1
 312 -7.7366434e+05 0.00e+00 4.75e+00  -1.0 1.43e-03   3.6 1.00e+00 1.00e+00f  1
 313 -7.7484214e+05 0.00e+00 4.68e+00  -1.0 4.56e-04   4.0 1.00e+00 1.00e+00f  1
 314 -7.7858707e+05 0.00e+00 4.48e+00  -1.0 1.52e-03   3.5 1.00e+00 1.00e+00f  1
 315 -7.7976487e+05 0.00e+00 4.42e+00  -1.0 4.84e-04   4.0 1.00e+00 1.00e+00f  1
 316 -7.8350980e+05 0.00e+00 4.22e+00  -1.0 1.61e-03   3.5 1.00e+00 1.00e+00f  1
 317 -7.8468760e+05 0.00e+00 4.16e+00  -1.0 5.13e-04   3.9 1.00e+00 1.00e+00f  1
 318 -7.8843252e+05 0.00e+00 3.98e+00  -1.0 1.71e-03   3.4 1.00e+00 1.00e+00f  1
 319 -7.8961032e+05 0.00e+00 3.92e+00  -1.0 5.45e-04   3.9 1.00e+00 1.00e+00f  1
iter    objective    inf_pr   inf_du lg(mu)  ||d||  lg(rg) alpha_du alpha_pr  ls
 320 -7.9335524e+05 0.00e+00 3.75e+00  -1.0 1.81e-03   3.4 1.00e+00 1.00e+00f  1
 321 -7.9453304e+05 0.00e+00 3.70e+00  -1.0 5.78e-04   3.8 1.00e+00 1.00e+00f  1
 322 -7.9827797e+05 0.00e+00 3.54e+00  -1.0 1.92e-03   3.3 1.00e+00 1.00e+00f  1
 323 -7.9945576e+05 0.00e+00 3.49e+00  -1.0 6.13e-04   3.8 1.00e+00 1.00e+00f  1
 324 -8.0320069e+05 0.00e+00 3.34e+00  -1.0 2.04e-03   3.3 1.00e+00 1.00e+00f  1
 325 -8.0437848e+05 0.00e+00 3.29e+00  -1.0 6.50e-04   3.7 1.00e+00 1.00e+00f  1
 326 -8.0812341e+05 0.00e+00 3.15e+00  -1.0 2.17e-03   3.2 1.00e+00 1.00e+00f  1
 327 -8.0930120e+05 0.00e+00 3.10e+00  -1.0 6.89e-04   3.7 1.00e+00 1.00e+00f  1
 328 -8.1304612e+05 0.00e+00 2.97e+00  -1.0 2.30e-03   3.2 1.00e+00 1.00e+00f  1
 329 -8.1422392e+05 0.00e+00 2.92e+00  -1.0 7.31e-04   3.6 1.00e+00 1.00e+00f  1
iter    objective    inf_pr   inf_du lg(mu)  ||d||  lg(rg) alpha_du alpha_pr  ls
 330 -8.1796884e+05 0.00e+00 2.80e+00  -1.0 2.44e-03   3.1 1.00e+00 1.00e+00f  1
 331 -8.1914664e+05 0.00e+00 2.76e+00  -1.0 7.75e-04   3.6 1.00e+00 1.00e+00f  1
 332 -8.2289155e+05 0.00e+00 2.64e+00  -1.0 2.58e-03   3.1 1.00e+00 1.00e+00f  1
 333 -8.2406935e+05 0.00e+00 2.60e+00  -1.0 8.22e-04   3.5 1.00e+00 1.00e+00f  1
 334 -8.2781427e+05 0.00e+00 2.49e+00  -1.0 2.74e-03   3.0 1.00e+00 1.00e+00f  1
 335 -8.2899206e+05 0.00e+00 2.45e+00  -1.0 8.72e-04   3.5 1.00e+00 1.00e+00f  1
 336 -8.3273698e+05 0.00e+00 2.34e+00  -1.0 2.91e-03   3.0 1.00e+00 1.00e+00f  1
 337 -8.3391478e+05 0.00e+00 2.31e+00  -1.0 9.25e-04   3.4 1.00e+00 1.00e+00f  1
 338 -8.3765969e+05 0.00e+00 2.21e+00  -1.0 3.08e-03   2.9 1.00e+00 1.00e+00f  1
 339 -8.3883749e+05 0.00e+00 2.18e+00  -1.0 9.81e-04   3.4 1.00e+00 1.00e+00f  1
iter    objective    inf_pr   inf_du lg(mu)  ||d||  lg(rg) alpha_du alpha_pr  ls
 340 -8.4258240e+05 0.00e+00 2.08e+00  -1.0 3.27e-03   2.9 1.00e+00 1.00e+00f  1
 341 -8.4376020e+05 0.00e+00 2.05e+00  -1.0 1.04e-03   3.3 1.00e+00 1.00e+00f  1
 342 -8.4750511e+05 0.00e+00 1.96e+00  -1.0 3.47e-03   2.8 1.00e+00 1.00e+00f  1
 343 -8.4868291e+05 0.00e+00 1.94e+00  -1.0 1.10e-03   3.3 1.00e+00 1.00e+00f  1
 344 -8.5242782e+05 0.00e+00 1.85e+00  -1.0 3.68e-03   2.8 1.00e+00 1.00e+00f  1
 345 -8.5360561e+05 0.00e+00 1.83e+00  -1.0 1.17e-03   3.2 1.00e+00 1.00e+00f  1
 346 -8.5735052e+05 0.00e+00 1.75e+00  -1.0 3.90e-03   2.7 1.00e+00 1.00e+00f  1
 347 -8.5852832e+05 0.00e+00 1.72e+00  -1.0 1.24e-03   3.2 1.00e+00 1.00e+00f  1
 348 -8.6227323e+05 0.00e+00 1.65e+00  -1.0 4.14e-03   2.7 1.00e+00 1.00e+00f  1
 349 -8.6345102e+05 0.00e+00 1.62e+00  -1.0 1.32e-03   3.1 1.00e+00 1.00e+00f  1
iter    objective    inf_pr   inf_du lg(mu)  ||d||  lg(rg) alpha_du alpha_pr  ls
 350 -8.6719593e+05 0.00e+00 1.55e+00  -1.0 4.39e-03   2.6 1.00e+00 1.00e+00f  1
 351 -8.6837373e+05 0.00e+00 1.53e+00  -1.0 1.40e-03   3.0 1.00e+00 1.00e+00f  1
 352 -8.7211864e+05 0.00e+00 1.46e+00  -1.0 4.66e-03   2.6 1.00e+00 1.00e+00f  1
 353 -8.7329643e+05 0.00e+00 1.44e+00  -1.0 1.48e-03   3.0 1.00e+00 1.00e+00f  1
 354 -8.7704134e+05 0.00e+00 1.38e+00  -1.0 4.94e-03   2.5 1.00e+00 1.00e+00f  1
 355 -8.7821913e+05 0.00e+00 1.36e+00  -1.0 1.57e-03   2.9 1.00e+00 1.00e+00f  1
 356 -8.8196404e+05 0.00e+00 1.30e+00  -1.0 5.24e-03   2.5 1.00e+00 1.00e+00f  1
 357 -8.8314183e+05 0.00e+00 1.28e+00  -1.0 1.67e-03   2.9 1.00e+00 1.00e+00f  1
 358 -8.8688673e+05 0.00e+00 1.23e+00  -1.0 5.56e-03   2.4 1.00e+00 1.00e+00f  1
 359 -8.8806452e+05 0.00e+00 1.21e+00  -1.0 1.77e-03   2.8 1.00e+00 1.00e+00f  1
iter    objective    inf_pr   inf_du lg(mu)  ||d||  lg(rg) alpha_du alpha_pr  ls
 360 -8.9180943e+05 0.00e+00 1.16e+00  -1.0 5.89e-03   2.4 1.00e+00 1.00e+00f  1
 361 -8.9298722e+05 0.00e+00 1.14e+00  -1.0 1.88e-03   2.8 1.00e+00 1.00e+00f  1
 362 -8.9673212e+05 0.00e+00 1.09e+00  -1.0 6.25e-03   2.3 1.00e+00 1.00e+00f  1
 363 -8.9790991e+05 0.00e+00 1.07e+00  -1.0 1.99e-03   2.7 1.00e+00 1.00e+00f  1
 364 -9.0165481e+05 0.00e+00 1.03e+00  -1.0 6.63e-03   2.3 1.00e+00 1.00e+00f  1
 365 -9.0283260e+05 0.00e+00 1.01e+00  -1.0 2.11e-03   2.7 1.00e+00 1.00e+00f  1
 366 -9.0657750e+05 0.00e+00 9.69e-01  -1.0 7.03e-03   2.2 1.00e+00 1.00e+00f  1
 367 -9.0775529e+05 0.00e+00 9.55e-01  -1.7 2.24e-03   2.6 1.00e+00 1.00e+00f  1
 368 -9.1150018e+05 0.00e+00 9.13e-01  -1.7 7.46e-03   2.2 1.00e+00 1.00e+00f  1
 369 -9.1267797e+05 0.00e+00 9.00e-01  -1.7 2.37e-03   2.6 1.00e+00 1.00e+00f  1
iter    objective    inf_pr   inf_du lg(mu)  ||d||  lg(rg) alpha_du alpha_pr  ls
 370 -9.1642286e+05 0.00e+00 8.61e-01  -1.7 7.91e-03   2.1 1.00e+00 1.00e+00f  1
 371 -9.1760065e+05 0.00e+00 8.49e-01  -1.7 2.52e-03   2.5 1.00e+00 1.00e+00f  1
 372 -9.2134554e+05 0.00e+00 8.12e-01  -1.7 8.39e-03   2.1 1.00e+00 1.00e+00f  1
 373 -9.2252332e+05 0.00e+00 8.00e-01  -1.7 2.67e-03   2.5 1.00e+00 1.00e+00f  1
 374 -9.2626820e+05 0.00e+00 7.65e-01  -1.7 8.90e-03   2.0 1.00e+00 1.00e+00f  1
 375 -9.2744598e+05 0.00e+00 7.55e-01  -1.7 2.83e-03   2.4 1.00e+00 1.00e+00f  1
 376 -9.3119086e+05 0.00e+00 7.22e-01  -1.7 9.44e-03   2.0 1.00e+00 1.00e+00f  1
 377 -9.3236864e+05 0.00e+00 7.11e-01  -1.7 3.00e-03   2.4 1.00e+00 1.00e+00f  1
 378 -9.3611350e+05 0.00e+00 6.80e-01  -1.7 1.00e-02   1.9 1.00e+00 1.00e+00f  1
 379 -9.3729127e+05 0.00e+00 6.71e-01  -1.7 3.19e-03   2.3 1.00e+00 1.00e+00f  1
iter    objective    inf_pr   inf_du lg(mu)  ||d||  lg(rg) alpha_du alpha_pr  ls
 380 -9.4103611e+05 0.00e+00 6.41e-01  -1.7 1.06e-02   1.9 1.00e+00 1.00e+00f  1
 381 -9.4221388e+05 0.00e+00 6.32e-01  -1.7 3.38e-03   2.3 1.00e+00 1.00e+00f  1
 382 -9.4595869e+05 0.00e+00 6.05e-01  -1.7 1.13e-02   1.8 1.00e+00 1.00e+00f  1
 383 -9.4713644e+05 0.00e+00 5.96e-01  -1.7 3.59e-03   2.2 1.00e+00 1.00e+00f  1
 384 -9.5088121e+05 0.00e+00 5.70e-01  -1.7 1.19e-02   1.8 1.00e+00 1.00e+00f  1
 385 -9.5205894e+05 0.00e+00 5.62e-01  -1.7 3.80e-03   2.2 1.00e+00 1.00e+00f  1
 386 -9.5580362e+05 0.00e+00 5.38e-01  -1.7 1.27e-02   1.7 1.00e+00 1.00e+00f  1
 387 -9.5698132e+05 0.00e+00 5.30e-01  -1.7 4.03e-03   2.1 1.00e+00 1.00e+00f  1
 388 -9.6072584e+05 0.00e+00 5.07e-01  -1.7 1.34e-02   1.7 1.00e+00 1.00e+00f  1
 389 -9.6190347e+05 0.00e+00 5.00e-01  -1.7 4.28e-03   2.1 1.00e+00 1.00e+00f  1
iter    objective    inf_pr   inf_du lg(mu)  ||d||  lg(rg) alpha_du alpha_pr  ls
 390 -9.6564767e+05 0.00e+00 4.78e-01  -1.7 1.43e-02   1.6 1.00e+00 1.00e+00f  1
 391 -9.6682515e+05 0.00e+00 4.71e-01  -1.7 4.54e-03   2.0 1.00e+00 1.00e+00f  1
 392 -9.7056866e+05 0.00e+00 4.51e-01  -1.7 1.51e-02   1.5 1.00e+00 1.00e+00f  1
 393 -9.7174579e+05 0.00e+00 4.44e-01  -1.7 4.81e-03   2.0 1.00e+00 1.00e+00f  1
 394 -9.7548759e+05 0.00e+00 4.25e-01  -1.7 1.60e-02   1.5 1.00e+00 1.00e+00f  1
 395 -9.7666386e+05 0.00e+00 4.19e-01  -1.7 5.10e-03   1.9 1.00e+00 1.00e+00f  1
 396 -9.8040093e+05 0.00e+00 4.00e-01  -1.7 1.70e-02   1.4 1.00e+00 1.00e+00f  1
 397 -9.8157470e+05 0.00e+00 3.95e-01  -1.7 5.41e-03   1.9 1.00e+00 1.00e+00f  1
 398 -9.8529668e+05 0.00e+00 3.78e-01  -1.7 1.80e-02   1.4 1.00e+00 1.00e+00f  1
 399 -9.8646212e+05 0.00e+00 3.72e-01  -1.7 5.74e-03   1.8 1.00e+00 1.00e+00f  1
iter    objective    inf_pr   inf_du lg(mu)  ||d||  lg(rg) alpha_du alpha_pr  ls
 400 -9.9012860e+05 0.00e+00 3.56e-01  -1.7 1.91e-02   1.3 1.00e+00 1.00e+00f  1
 401 -9.9126272e+05 0.00e+00 3.51e-01  -1.7 6.09e-03   1.8 1.00e+00 1.00e+00f  1
 402 -9.9471673e+05 0.00e+00 3.36e-01  -1.7 2.03e-02   1.3 1.00e+00 1.00e+00f  1
 403 -1.0003747e+06 0.00e+00 3.23e-01  -1.7 6.31e-01   0.8 1.00e+00 1.25e-01f  4
 404 -1.0016121e+06 0.00e+00 6.61e-01  -1.7 6.29e-02   0.3 1.00e+00 1.00e+00f  1
 405 -1.0030962e+06 0.00e+00 6.61e-01  -1.7 3.00e+00    -  1.00e+00 1.00e+00f  1
 406 -1.0031625e+06 0.00e+00 9.81e-03  -1.7 5.50e-02    -  1.00e+00 1.00e+00f  1
 407 -1.0031629e+06 0.00e+00 8.60e-05  -3.8 4.06e-03    -  1.00e+00 1.00e+00f  1
 408 -1.0031629e+06 0.00e+00 7.91e-09  -5.7 2.64e-05    -  1.00e+00 1.00e+00f  1
 409 -1.0031629e+06 0.00e+00 6.56e-11  -9.0 3.79e-09    -  1.00e+00 1.00e+00f  1

Number of Iterations....: 409

                                   (scaled)                 (unscaled)
Objective...............:  -1.9882728752502203e+02   -1.0031629024131879e+06
Dual infeasibility......:   6.5589389862824335e-11    3.3092461060718630e-07
Constraint violation....:   0.0000000000000000e+00    0.0000000000000000e+00
Complementarity.........:   0.0000000000000000e+00    0.0000000000000000e+00
Overall NLP error.......:   6.5589389862824335e-11    3.3092461060718630e-07


Number of objective function evaluations             = 417
Number of objective gradient evaluations             = 410
Number of equality constraint evaluations            = 0
Number of inequality constraint evaluations          = 0
Number of equality constraint Jacobian evaluations   = 0
Number of inequality constraint Jacobian evaluations = 0
Number of Lagrangian Hessian evaluations             = 409
Total CPU secs in IPOPT (w/o function evaluations)   =     11.767
Total CPU secs in NLP function evaluations           =     21.877

EXIT: Optimal Solution Found.

 ** SUBROUTINE CUTEST_csetup: Warning. The problem has no general constraints. 
 ** Other tools may be preferable ** 

************************ CUTEst statistics ************************


 Package used            :  IPOPT
 Problem                 :  SCURLY30  
 # variables             =           10000
 # constraints           =               0
 # objective functions   =        0.8280000E+03
 # objective gradients   =        0.4110000E+03
 # objective Hessians    =        0.4100000E+03
 # Hessian-vector prdct  =        0.0000000E+00
 # constraints functions =        0.0000000E+00
 # constraints gradients =        0.0000000E+00
 # constraints Hessians  =        0.0000000E+00
 Exit code               =               0
 Final f                 =  -0.1003163E+07
 Set up time             =            0.41 seconds
 Solve time              =           33.75 seconds


******************************************************************

System Time =      33.7140007019 s.
